CPXPARAM_TimeLimit                               3600
CPXPARAM_Read_DataCheck                          1
Tried aggregator 1 time.
MIP Presolve eliminated 2514 rows and 0 columns.
MIP Presolve modified 4178 coefficients.
Reduced MIP has 118066 rows, 54451 columns, and 560660 nonzeros.
Reduced MIP has 2850 binaries, 0 generals, 0 SOSs, and 0 indicators.
Presolve time = 0.09 sec. (156.48 ticks)
Found incumbent of value 11735.000000 after 0.20 sec. (306.52 ticks)
Probing time = 0.03 sec. (24.35 ticks)
Tried aggregator 1 time.
Reduced MIP has 118066 rows, 54451 columns, and 560660 nonzeros.
Reduced MIP has 2850 binaries, 0 generals, 0 SOSs, and 0 indicators.
Presolve time = 0.21 sec. (226.22 ticks)
Probing time = 0.03 sec. (24.04 ticks)
MIP emphasis: balance optimality and feasibility.
MIP search method: dynamic search.
Parallel mode: deterministic, using up to 8 threads.
Root relaxation solution time = 3245.36 sec. (1144343.43 ticks)

        Nodes                                         Cuts/
   Node  Left     Objective  IInf  Best Integer    Best Bound    ItCnt     Gap

*     0+    0                        11735.0000      990.0000            91.56%
      0     0     1005.8402  2799    11735.0000     1005.8402       32   91.43%

Implied bound cuts applied:  25
Flow cuts applied:  69
Mixed integer rounding cuts applied:  1143

Root node processing (before b&c):
  Real time             = 3600.05 sec. (1369767.88 ticks)
Parallel b&c, 8 threads:
  Real time             =    0.00 sec. (0.00 ticks)
  Sync time (average)   =    0.00 sec.
  Wait time (average)   =    0.00 sec.
                          ------------
Total (root+branch&cut) = 3600.05 sec. (1369767.88 ticks)
